benchmarks/bfuzz0/126381868020895113072772027895207364114.smt2
(set-logic QF_FP)
(declare-const x0 (_ FloatingPoint 8 24))
(declare-const x1 (_ FloatingPoint 8 24))
(declare-const x2 (_ FloatingPoint 8 24))
(declare-const x3 (_ FloatingPoint 8 24))
(declare-const x4 (_ FloatingPoint 8 24))
(declare-const x5 (_ FloatingPoint 8 24))
(declare-const x6 (_ FloatingPoint 8 24))
(declare-const x7 (_ FloatingPoint 8 24))
(declare-const x8 (_ FloatingPoint 8 24))
(declare-const x9 (_ FloatingPoint 8 24))
(declare-const x10 (_ FloatingPoint 8 24))
(declare-const x11 (_ FloatingPoint 8 24))
(assert (fp.lt (fp.mul RNE x8 x6) (fp.div RNE x5 x0)))
(assert (fp.geq (fp.neg x3) (fp.div RNE x9 x0)))
(assert (fp.gt (fp.neg x5) (fp.neg x2)))
(assert (fp.leq (fp.mul RNE x9 x5) (fp.sub RNE x6 x0)))
(assert (fp.leq (fp.sub RNE x3 x2) (fp.sub RNE x8 x9)))
(assert (fp.gt (fp.neg x10) (fp.sub RNE x7 x4)))
(assert (fp.eq (fp.add RNE x8 x10) (fp.sub RNE x8 x6)))
(assert (fp.eq (fp.add RNE x8 x7) (fp.add RNE x3 x11)))
(check-sat)
