db/data/126381868020895113072772027895207364114.z3.out
sat
-------------------
8.854452729
